number of jobs, number of machines, initial seed, upper bound and lower bound :
20           10   0000        0000        0000
processing times :
 73 47 64 22 23 75 9 28 36 54 93 67 63 2 71 73 11 32 59 48
 26 36 11 13 86 50 74 59 20 84 71 73 39 30 71 35 23 3 85 45
 37 33 13 79 70 59 59 56 7 24 37 10 46 86 16 37 56 7 39 4
 14 81 28 73 78 80 18 49 15 61 64 36 43 82 7 24 76 37 94 40
 45 61 20 5 15 49 36 95 19 86 88 20 30 51 20 52 39 80 97 47
 68 40 70 87 49 52 12 39 57 76 8 93 28 5 82 87 65 81 47 25
 37 80 31 67 93 32 98 16 51 63 53 91 59 10 60 12 60 13 29 3
 45 80 66 84 49 36 34 93 54 78 45 50 48 57 16 8 33 63 16 15
 68 11 66 17 16 6 38 93 91 14 25 12 62 64 1 94 56 80 54 28
 35 91 5 4 22 50 36 94 22 98 63 71 89 88 90 93 78 74 19 11
